p tw 232 258
1 2
2 113
3 14
4 5
5 6
6 7
7 8
8 9
9 10
10 11
11 12
12 13
13 15
13 27
14 25
15 16
16 17
17 18
17 20
18 19
19 23
20 21
21 22
22 23
23 24
24 26
25 36
26 8
27 28
28 29
29 30
30 31
30 33
31 32
32 33
33 34
34 35
34 50
35 37
36 47
37 38
37 40
38 39
39 42
40 41
41 42
42 43
43 44
44 45
45 46
46 48
47 58
48 49
49 148
50 51
51 52
52 53
53 54
54 55
54 59
55 56
56 57
57 52
58 69
58 114
59 60
60 61
61 62
61 67
62 63
63 64
64 65
65 66
66 71
67 68
68 70
69 80
70 71
71 72
72 73
73 74
74 75
75 76
76 77
77 78
78 79
79 81
80 91
80 114
81 82
82 83
83 84
84 85
85 86
86 87
87 88
88 89
88 107
89 90
90 92
91 102
92 93
93 94
94 95
95 96
96 97
96 103
97 98
98 99
99 100
100 101
100 126
101 103
101 126
102 114
102 147
103 104
104 105
105 106
106 126
107 108
108 109
109 110
110 111
111 112
112 115
113 156
114 125
115 116
116 117
116 122
117 118
118 119
119 120
120 121
120 126
121 122
121 126
122 123
123 124
124 126
125 136
126 127
127 128
128 129
129 130
130 131
131 132
132 133
133 134
134 135
135 137
136 148
137 138
138 139
138 141
139 140
140 143
141 142
142 143
143 144
144 145
145 146
146 148
147 150
148 149
150 151
151 152
152 153
152 155
153 154
154 71
155 157
156 167
157 158
158 159
159 160
160 161
161 162
162 163
162 176
163 164
163 166
164 165
165 169
166 168
167 178
168 169
169 170
170 171
171 172
172 173
173 174
174 175
175 148
176 177
177 179
178 189
179 180
179 188
180 181
181 182
182 183
183 184
184 185
184 193
185 186
186 187
187 182
188 190
189 200
190 191
191 192
192 195
193 194
194 195
195 196
196 197
197 198
197 207
198 199
199 201
200 211
201 202
202 203
203 204
203 212
204 205
205 206
206 201
207 208
208 209
209 210
210 214
211 222
212 213
213 214
214 215
215 216
216 217
216 220
217 218
218 219
219 225
220 221
221 223
222 3
223 224
224 225
225 226
226 227
227 228
227 231
228 229
229 230
230 5
231 232
232 4
